NAME : grid
TYPE : TSP
DIMENSION : 50
EDGE_WEIGHT_TYPE : EUC_2D
NODE_COORD_SECTION
1 841086 605526
2 74346 523898
3 771528 139129
4 948633 734122
5 157334 379387
6 804931 762396
7 959102 880862
8 432422 64163
9 659069 692208
10 805733 274935
11 258715 505694
12 383520 404747
13 18862 47485
14 18862 294363
15 68974 360304
16 166708 495583
17 402487 14553
18 278969 47485
19 753802 400142
20 545025 864922
21 269955 524377
22 278969 294363
23 557425 539337
24 966909 259595
25 698168 204975
26 883537 320362
27 503008 755321
28 168333 853714
29 49254 635073
30 891496 685797
31 710551 366759
32 387202 677706
33 942404 548862
34 718010 229782
35 534159 475028
36 68695 560297
37 262416 185059
38 241665 996653
39 365603 211953
40 632291 770405
41 765544 499584
42 591694 206328
43 310446 19899
44 48994 322820
45 500157 915111
46 266726 333412
47 511000 948597
48 151216 984120
49 495904 354056
50 406142 959663
EOF
